
Gurobi 11.0.1 (win64) logging started Sun Mar 31 11:13:36 2024

Set parameter LogFile to value "C:\Projetos\Job_Rotation_Algorithms\Outputs\GurobiLogs\gurobi_log-output-15_hes-c143-CostaMirallesModel-NoExtraConstraint-2.log"
Gurobi Optimizer version 11.0.1 build v11.0.1rc0 (win64 - Windows 10.0 (19045.2))

CPU model: 11th Gen Intel(R) Core(TM) i7-1165G7 @ 2.80GHz, instruction set [SSE2|AVX|AVX2|AVX512]
Thread count: 4 physical cores, 8 logical processors, using up to 1 threads

WLS license 901039 - registered to Bitka Analytics
Optimize a model with 467 rows, 826 columns and 6870 nonzeros
Model fingerprint: 0xacde3205
Variable types: 2 continuous, 824 integer (824 binary)
Coefficient statistics:
  Matrix range     [1e+00, 1e+02]
  Objective range  [1e+00, 1e+00]
  Bounds range     [1e+00, 3e+02]
  RHS range        [1e+00, 3e+02]
Presolve removed 137 rows and 113 columns
Presolve time: 0.08s
Presolved: 330 rows, 713 columns, 4306 nonzeros
Variable types: 0 continuous, 713 integer (712 binary)

Root relaxation: objective 5.600000e+01, 252 iterations, 0.00 seconds (0.00 work units)

    Nodes    |    Current Node    |     Objective Bounds      |     Work
 Expl Unexpl |  Obj  Depth IntInf | Incumbent    BestBd   Gap | It/Node Time

     0     0   56.00000    0   14          -   56.00000      -     -    0s
     0     0   56.00000    0  140          -   56.00000      -     -    0s
     0     0   56.00000    0  130          -   56.00000      -     -    0s
     0     0   56.00000    0   31          -   56.00000      -     -    0s
     0     0   56.00000    0   33          -   56.00000      -     -    0s
     0     0   56.00000    0   30          -   56.00000      -     -    0s
     0     0   56.00000    0   43          -   56.00000      -     -    0s
     0     0   56.00000    0   26          -   56.00000      -     -    0s
     0     0   56.00000    0   26          -   56.00000      -     -    0s
     0     2   56.00000    0   26          -   56.00000      -     -    0s
*  436    98              20      48.0000000   56.00000  16.7%  37.9    1s
H  439    90                      49.0000000   56.00000  14.3%  37.7    1s
H  496    99                      50.0000000   56.00000  12.0%  38.9    1s
H 1029   159                      51.0000000   56.00000  9.80%  58.4    3s
  1205   158   56.00000   10   59   51.00000   56.00000  9.80%  67.2    5s
  1935   108   55.00000   18  129   51.00000   55.88686  9.58%  83.3   10s

Cutting planes:
  Learned: 1
  Gomory: 8
  Cover: 915
  Implied bound: 8
  Clique: 112
  MIR: 45
  StrongCG: 16
  GUB cover: 23
  Inf proof: 3
  Zero half: 5
  RLT: 6
  Relax-and-lift: 1

Explored 2249 nodes (180416 simplex iterations) in 10.72 seconds (5.59 work units)
Thread count was 1 (of 8 available processors)

Solution count 4: 51 50 49 48 

Optimal solution found (tolerance 1.00e-03)
Best objective 5.100000000000e+01, best bound 5.100000000000e+01, gap 0.0000%
